59 60
17 22 1
20 35 1
18 17 1
6 23 1
28 13 1
33 31 1
16 25 1
21 28 1
32 11 1
10 30 1
33 10 1
15 29 1
23 1 1
29 28 2
18 13 1
21 10 1
11 14 1
6 35 1
4 20 1
11 2 1
13 23 1
6 33 1
31 27 1
5 14 1
27 13 1
1 19 1
16 7 1
33 29 1
26 13 1
12 1 1
24 13 1
34 9 1
27 33 1
34 34 1
28 7 1
27 32 1
29 22 1
6 8 1
12 33 1
8 11 1
3 10 1
16 1 1
7 3 1
20 14 1
4 6 1
26 32 1
22 20 1
12 12 1
8 29 1
5 22 1
16 26 1
14 4 1
17 33 1
23 26 1
4 16 1
14 11 1
15 28 1
14 31 1
30 26 1
40 40 
40 40 
40 40 
40 40 
40 40 
40 40 
40 40 
40 40 
40 40 
40 40 
40 40 
40 40 
40 40 
40 40 
40 40 
40 40 
40 40 
40 40 
40 40 
40 40 
40 40 
40 40 
40 40 
40 40 
40 40 
40 40 
40 40 
40 40 
40 40 
40 40 
40 40 
40 40 
40 40 
40 40 
40 40 
40 40 
40 40 
40 40 
40 40 
40 40 
40 40 
40 40 
40 40 
40 40 
40 40 
40 40 
40 40 
40 40 
40 40 
40 40 
40 40 
40 40 
40 40 
40 40 
40 40 
40 40 
40 40 
40 40 
40 40 
40 40 
